p cnf 28 24
-44 -69 -89 -97 -98 -102 -103 0
-44 -45 -69 -70 -89 -97 -102 -103 -106 0
-7 -44 -45 -69 -70 -89 -97 -102 -103 0
-44 -69 -73 -89 -98 -103 0
-8 -48 -73 -74 -89 -98 0
-48 -73 -74 -89 -98 -106 0
-46 -67 -71 -73 -89 -98 -101 0
-46 -71 -73 -89 -98 -101 -104 -106 0
-41 -63 -67 -73 -85 -89 -95 -99 -101 0
-7 -44 -45 -69 -70 -73 -89 -103 0
-44 -45 -69 -70 -73 -89 -103 -106 0
-41 -44 -63 -69 -73 -85 -89 -95 -99 -103 0
-7 -45 -46 -67 -70 -71 -73 -89 -101 0
-7 -45 -66 -67 -70 -73 -89 -96 -100 -101 0
-7 -8 -45 -48 -70 -73 -74 -89 0
-45 -48 -70 -73 -74 -89 -106 0
-45 -46 -67 -70 -71 -73 -89 -101 -106 0
-45 -66 -67 -70 -73 -89 -96 -100 -101 -106 0
-45 -66 -70 -73 -89 -96 -100 -101 -104 -106 0
-41 -63 -73 -85 -89 -95 -99 -101 -104 -106 0
-41 -48 -63 -73 -74 -85 -89 -95 -99 -106 0
-45 -46 -70 -71 -73 -89 -101 -104 -106 0
-66 -67 -73 -89 -96 -98 -100 -101 0
-66 -73 -89 -96 -98 -100 -101 -104 -106 0
